50

99 2 157
99 20 219
96 13 160
96 26 241
92 11 171
92 7 274
91 25 154
88 19 228
87 24 241
86 9 255
85 14 218
76 23 141
74 15 258
72 5 279
69 8 186
67 2 273
67 11 195
62 19 156
61 11 220
56 8 181
52 16 296
51 9 295
49 1 143
46 1 178
44 3 298
42 3 244
40 5 289
40 10 202
33 4 211
33 5 275
30 4 271
30 8 300
29 4 264
28 4 158
28 3 166
27 1 200
25 1 258
24 3 160
23 1 141
22 6 267
21 6 215
20 3 168
17 3 176
14 3 300
13 2 249
11 1 283
10 1 279
7 3 198
7 2 279
3 1 271
